NAME: tsp10_batch1_uniform.tsp
TYPE: TSP
DIMENSION: 10
EDGE_WEIGHT_TYPE: EUC_2D
NODE_COORD_SECTION
1 11.58177723096776 38.85054954458612
2 45.021779913818236 42.71528051340157
3 70.36002315943065 1.752282050775289
4 37.43019442740538 25.46499448498266
5 70.40649517596928 70.94761689967778
6 72.38309602535313 83.89302307235583
7 56.025440044903675 6.918872465764048
8 1.055396291588806 12.194394076497073
9 76.43073552768031 90.88923611118165
10 57.12766125872185 72.08497769677653
EOF
